c Result of efficient AIG-to-CNF conversion using package CNF
p cnf 11 17
2 5 -6 7 3 0
-2 6 0
-2 -3 0
-2 -5 0
-2 -7 0
3 -8 9 4 0
3 -8 10 4 0
-3 8 0
-3 -4 0
-3 -9 -10 0
4 -9 -11 -12 0
4 -10 -11 -12 0
-4 12 0
-4 11 0
-4 9 10 0
-13 0
-2 0

